c ---- [ banner ] ------------------------------------------------------------
c
c Kissat SAT Solver
c 
c Copyright (c) 2021-2024 Armin Biere University of Freiburg
c Copyright (c) 2019-2021 Armin Biere Johannes Kepler University Linz
c 
c Version 4.0.1 43f02cf3e992cb44653b35e5cb26f93281552ae0
c gcc (Ubuntu 13.2.0-23ubuntu4) 13.2.0 -W -Wall -O3 -DNDEBUG
c Thu Sep 12 12:27:46 CEST 2024 Linux abryzen9 6.8.0-41-generic x86_64
c
c ---- [ parsing ] -----------------------------------------------------------
c
c opened and reading DIMACS file:
c
c   /data/artifact/AMulet2.0_artifact/exp4/cnf_sopb_64/64_64_U1_WT_KS_Multgen_sopb.cnf
c
c parsed 'p cnf 30672 135356' header
c closing input after reading 2717677 bytes (3 MB)
c finished parsing after 0.02 seconds
c
c ---- [ options ] -----------------------------------------------------------
c
c --stable=0                       (different from default '1')
c
c ---- [ solving ] -----------------------------------------------------------
c
c  seconds switched rate     size/glue tier1  binary           remaining
c         MB reductions conflicts size  tier2     irredundant
c          level restarts redundant glue  trail           variables
c
c *  0.02 10 0 0 0  0 0   0   0 0.0 0 0 0 0 0% 14434 120920 30669 100%
c (  0.04 13 0 0 0  0 0   0   0 0.0 0 0 0 0 0% 14434 120920 30669 100%
c .  0.05 13 0 0 0  0 0   0   0 0.0 0 0 0 0 0% 14430 120920 30669 100%
c c  0.14 18 0 0 0  0 0   0   0 0.0 0 0 0 0 0% 19315 111441 28238 92%
c d  0.15 18 0 0 0  0 0   0   0 0.0 0 0 0 0 0% 14453 111441 28238 92%
c =  0.22 18 0 0 0  0 0   0   0 0.0 0 0 0 0 0% 14347 111440 28212 92%
c d  0.22 18 0 0 0  0 0   0   0 0.0 0 0 0 0 0% 14294 111440 28212 92%
c f  0.35 19 0 0 0  0 0   0   0 0.0 0 0 0 0 0% 19872 102662 31349 102%
c e  0.50 25 0 0 0  0 0   0   0 0.0 0 0 0 0 0% 12714 112050 22057 72%
c )  0.50 25 0 0 0  0 0   0   0 0.0 0 0 0 0 0% 12714 112050 22057 72%
c {  0.51 25 0 0 0  0 0   0   0 0.0 0 0 2 6 0% 12714 112050 22057 72%
c -  0.68 26 110 0 1 284 31 1001 727 2.5 11 4 2 9 15% 12821 112037 22057 72%
c -  0.95 26 271 0 2 453 37 2001 1408 3.6 17 5 2 8 19% 12891 112021 22057 72%
c c  1.14 24 274 0 2 517 38 2505 1817 4.2 21 5 2 8 20% 12943 112000 22053 72%
c d  1.15 24 274 0 2 517 38 2505 1817 4.2 21 5 2 8 20% 12935 112000 22053 72%
c u  1.17 24 274 0 2 517 38 2505 1578 4.2 21 5 2 8 20% 12954 112000 22053 72%
c v  1.20 24 274 0 2 517 38 2505 1240 4.2 21 5 2 8 20% 12954 112000 22053 72%
c w  1.25 25 274 0 2 517 38 2505 1239 4.2 21 5 2 8 20% 12954 112000 22053 72%
c x  1.27 25 274 0 2 517 38 2505 1239 4.2 21 5 2 8 20% 13032 111822 22053 72%
c =  1.35 25 274 0 2 517 38 2505 1239 4.2 21 5 2 8 20% 13048 111822 22045 72%
c
c  seconds   switched   rate       size/glue tier1    binary           remaining
c         MB  reductions conflicts       size  tier2      irredundant
c           level restarts    redundant    glue   trail           variables
c
c d  1.36 25 274 0 2 517 38 2505 1239 4.2 21 5 2 8 20% 13028 111822 22045 72%
c t  1.37 25 274 0 2 517 38 2505 1239 4.2 21 5 2 8 20% 13015 111822 22045 72%
c f  1.41 25 274 0 2 517 38 2505 1239 4.2 21 5 2 8 20% 13803 110319 22721 74%
c u  1.44 25 274 0 2 517 38 2505 1201 4.2 21 5 2 8 20% 13805 110319 22721 74%
c v  1.45 25 274 0 2 517 38 2505 1173 4.2 21 5 2 8 20% 13805 110319 22721 74%
c w  1.50 25 274 0 2 517 38 2505 1164 4.2 21 5 2 8 20% 13805 110319 22721 74%
c x  1.52 25 274 0 2 517 38 2505 1164 4.2 21 5 2 8 20% 13815 110298 22721 74%
c =  1.60 25 274 0 2 517 38 2505 1164 4.2 21 5 2 8 20% 14097 110298 22580 74%
c d  1.61 25 274 0 2 517 38 2505 1163 4.2 21 5 2 8 20% 13812 110298 22580 74%
c f  1.66 25 274 0 2 517 38 2505 1163 4.2 21 5 2 8 20% 15070 108400 23211 76%
c -  2.16 26 284 0 3 740 44 3415 1702 4.6 25 6 2 9 22% 15125 108398 23211 76%
c -  2.63 26 380 0 4 969 45 5151 2885 4.3 24 6 2 8 23% 15212 108394 23211 76%
c -  3.02 26 379 0 5 1204 45 7151 4033 4.7 28 6 2 8 22% 15312 108388 23211 76%
c c  3.12 26 373 0 5 1225 44 7720 4383 4.5 27 6 2 8 22% 15369 108202 23176 76%
c d  3.13 26 373 0 5 1225 44 7720 4337 4.5 27 6 2 8 22% 15294 108202 23173 76%
c u  3.15 26 373 0 5 1225 44 7720 3873 4.5 27 6 2 8 22% 15310 108202 23173 76%
c v  3.18 26 373 0 5 1225 44 7720 3329 4.5 27 6 2 8 22% 15310 108202 23173 76%
c w  3.21 26 373 0 5 1225 44 7720 3321 4.5 27 6 2 8 22% 15310 108202 23173 76%
c =  3.37 26 373 0 5 1225 44 7720 3321 4.5 27 6 2 8 22% 15736 108202 22960 75%
c d  3.38 26 373 0 5 1225 44 7720 3317 4.5 27 6 2 8 22% 15235 108202 22960 75%
c
c  seconds   switched    rate       size/glue tier1    binary           remaining
c         MB  reductions  conflicts       size  tier2      irredundant
c           level  restarts    redundant    glue   trail           variables
c
c t  3.41 26 373 0 5 1225 44 7720 3317 4.5 27 6 2 8 22% 15221 108202 22960 75%
c f  3.47 26 373 0 5 1225 44 7720 3317 4.5 27 6 2 8 22% 16284 106603 23493 77%
c u  3.60 26 373 0 5 1225 44 7720 3230 4.5 27 6 2 8 22% 16287 106603 23493 77%
c v  3.63 26 373 0 5 1225 44 7720 3148 4.5 27 6 2 8 22% 16287 106603 23493 77%
c w  3.65 26 373 0 5 1225 44 7720 3144 4.5 27 6 2 8 22% 16287 106603 23493 77%
c x  3.72 26 373 0 5 1225 44 7720 3144 4.5 27 6 2 8 22% 16291 106182 23493 77%
c =  3.87 26 373 0 5 1225 44 7720 3144 4.5 27 6 2 8 22% 16961 106180 23158 76%
c d  3.88 26 373 0 5 1225 44 7720 3130 4.5 27 6 2 8 22% 16144 106180 23158 76%
c t  3.90 26 373 0 5 1225 44 7720 3130 4.5 27 6 2 8 22% 16065 106180 23158 76%
c f  3.95 26 373 0 5 1225 44 7720 3130 4.5 27 6 2 8 22% 18158 103030 24211 79%
c -  4.42 26 395 0 6 1381 42 9387 4056 4.4 26 6 2 8 22% 18240 103026 24211 79%
c o  4.67 26 386 0 6 1456 40 10252 4689 4.5 27 6 2 8 22% 18296 103026 24211 79%
c -  5.38 26 380 0 7 1654 41 11837 5346 4.8 30 6 2 8 23% 18344 103026 24211 79%
c s  5.60 26 374 0 7 1697 40 12520 5944 4.7 29 6 2 8 23% 18379 100467 24211 79%
c e  5.75 26 374 0 7 1697 40 12520 5944 4.7 29 6 2 8 23% 17163 101328 23155 75%
c 2  5.75 26 374 0 7 1697 40 12520 5944 4.7 29 6 2 8 23% 17161 101328 23155 75%
c s  5.76 26 374 0 7 1697 40 12520 5944 4.7 29 6 2 8 23% 17171 100841 23155 75%
c e  5.78 26 374 0 7 1697 40 12520 5944 4.7 29 6 2 8 23% 16995 100948 23067 75%
c ^  5.78 26 374 0 7 1697 40 12520 5944 4.7 29 6 2 8 23% 16995 100948 23067 75%
c -  6.33 26 357 0 8 1867 38 14482 6295 4.4 27 6 2 8 23% 17043 100946 23067 75%
c
c  seconds   switched    rate        size/glue tier1    binary           remaining
c         MB  reductions   conflicts       size  tier2      irredundant
c           level  restarts     redundant    glue   trail           variables
c
c d  6.71 26 355 0 8 1988 38 15807 7406 4.5 28 6 2 8 23% 16842 100939 22915 75%
c u  6.77 26 355 0 8 1988 38 15807 6451 4.5 28 6 2 8 23% 16854 100939 22915 75%
c v  6.83 26 355 0 8 1988 38 15807 5541 4.5 28 6 2 8 23% 16854 100939 22915 75%
c w  6.93 26 355 0 8 1988 38 15807 5538 4.5 28 6 2 8 23% 16854 100939 22915 75%
c x  6.98 26 355 0 8 1988 38 15807 5536 4.5 28 6 2 8 23% 16891 100589 22915 75%
c =  7.23 26 355 0 8 1988 38 15807 5536 4.5 28 6 2 8 23% 17843 100589 22439 73%
c d  7.24 26 355 0 8 1988 38 15807 5501 4.5 28 6 2 8 23% 16731 100589 22436 73%
c t  7.27 26 355 0 8 1988 38 15807 5501 4.5 28 6 2 8 23% 16670 100589 22436 73%
c f  7.35 26 355 0 8 1988 38 15807 5501 4.5 28 6 2 8 23% 16728 100367 22510 73%
c u  7.47 26 355 0 8 1988 38 15807 5290 4.5 28 6 2 8 23% 16733 100367 22510 73%
c v  7.51 26 355 0 8 1988 38 15807 5190 4.5 28 6 2 8 23% 16733 100367 22510 73%
c w  7.62 26 355 0 8 1988 38 15807 5165 4.5 28 6 2 8 23% 16733 100367 22510 73%
c x  7.67 26 355 0 8 1988 38 15807 5163 4.5 28 6 2 8 23% 16739 99176 22510 73%
c =  7.93 26 355 0 8 1988 38 15807 5163 4.5 28 6 2 8 23% 18139 99174 21810 71%
c d  7.94 26 355 0 8 1988 38 15807 5155 4.5 28 6 2 8 23% 16075 99174 21810 71%
c t  7.97 26 355 0 8 1988 38 15807 5155 4.5 28 6 2 8 23% 16068 99174 21810 71%
c f  8.00 26 355 0 8 1988 38 15807 5155 4.5 28 6 2 8 23% 16076 99156 21814 71%
c -  8.57 26 347 0 9 2172 38 17310 5793 4.5 28 6 2 8 24% 16123 99154 21814 71%
c o  9.35 26 359 0 9 2443 37 20300 8319 4.5 28 6 2 8 23% 16272 99149 21814 71%
c -  9.40 26 359 0 10 2445 37 20313 7488 4.5 29 6 2 7 23% 16272 99149 21814 71%
c
c  seconds   switched     rate        size/glue tier1    binary          remaining
c         MB   reductions   conflicts       size  tier2      irredundant
c           level   restarts     redundant    glue   trail          variables
c
c - 10.40 26 351 0 11 2782 37 23475 8927 4.6 30 6 2 7 24% 16422 99148 21814 71%
c s 10.87 26 342 0 11 2917 37 25033 10300 4.7 30 7 2 7 24% 16463 96534 21814 71%
c e 11.02 26 342 0 11 2917 37 25033 10300 4.7 30 7 2 7 24% 12418 101588 19650 64%
c 2 11.03 26 342 0 11 2917 37 25033 10300 4.7 30 7 2 7 24% 12416 101588 19650 64%
c s 11.04 26 342 0 11 2917 37 25033 10300 4.7 30 7 2 7 24% 12448 101157 19650 64%
c e 11.06 26 342 0 11 2917 37 25033 10300 4.7 30 7 2 7 24% 12384 101238 19619 64%
c ^ 11.06 26 342 0 11 2917 37 25033 10300 4.7 30 7 2 7 24% 12384 101238 19619 64%
c - 11.48 26 336 0 12 3061 36 26791 9238 4.5 29 7 2 7 24% 12431 101229 19619 64%
c d 11.53 26 335 0 12 3062 36 26940 9380 4.5 29 7 2 7 24% 12133 101229 19441 63%
c u 11.59 26 335 0 12 3062 36 26940 8148 4.5 29 7 2 7 24% 12167 101229 19441 63%
c v 11.64 26 335 0 12 3062 36 26940 7262 4.5 29 7 2 7 24% 12169 101229 19441 63%
c w 11.66 26 335 0 12 3062 36 26940 7258 4.5 29 7 2 7 24% 12169 101229 19441 63%
c x 11.76 26 335 0 12 3062 36 26940 7249 4.5 29 7 2 7 24% 12230 99640 19441 63%
c = 12.09 26 335 0 12 3062 36 26940 7249 4.5 29 7 2 7 24% 15482 99630 17815 58%
c d 12.10 26 335 0 12 3062 36 26940 7135 4.5 29 7 2 7 24% 12126 99630 17814 58%
c t 12.13 26 335 0 12 3062 36 26940 7135 4.5 29 7 2 7 24% 12059 99630 17814 58%
c f 12.23 26 335 0 12 3062 36 26940 7135 4.5 29 7 2 7 24% 12115 99404 17866 58%
c u 12.29 26 335 0 12 3062 36 26940 6770 4.5 29 7 2 7 24% 12121 99404 17866 58%
c v 12.33 26 335 0 12 3062 36 26940 6642 4.5 29 7 2 7 24% 12121 99404 17866 58%
c w 12.34 26 335 0 12 3062 36 26940 6640 4.5 29 7 2 7 24% 12121 99404 17866 58%
c
c  seconds   switched     rate        size/glue tier1    binary          remaining
c         MB   reductions   conflicts       size  tier2      irredundant
c           level   restarts     redundant    glue   trail          variables
c
c x 12.49 26 335 0 12 3062 36 26940 6639 4.5 29 7 2 7 24% 12135 92497 17866 58%
c = 12.80 26 335 0 12 3062 36 26940 6639 4.5 29 7 2 7 24% 13581 92497 17143 56%
c d 12.81 26 335 0 12 3062 36 26940 6589 4.5 29 7 2 7 24% 12103 92497 17143 56%
c t 12.83 26 335 0 12 3062 36 26940 6589 4.5 29 7 2 7 24% 12063 92497 17143 56%
c f 12.87 26 335 0 12 3062 36 26940 6589 4.5 29 7 2 7 24% 12068 92477 17148 56%
c - 13.50 26 334 0 13 3274 34 30255 8749 4.3 28 6 2 7 24% 12110 92477 17148 56%
c - 14.43 26 329 0 14 3650 34 33860 10762 4.2 28 7 2 7 24% 12173 92475 17148 56%
c - 15.62 26 319 0 15 4110 35 37601 12453 4.3 29 7 2 6 24% 12244 92475 17148 56%
c o 16.13 26 318 0 15 4260 33 40981 15172 4.2 28 7 2 6 24% 12353 92475 17148 56%
c c 16.39 26 317 0 15 4334 34 41266 15439 4.2 28 7 2 6 24% 12496 91631 17006 55%
c d 16.40 26 317 0 15 4334 34 41266 15179 4.2 28 7 2 6 24% 12212 91631 17006 55%
c u 16.49 26 317 0 15 4334 34 41266 12853 4.2 28 7 2 6 24% 12228 91631 17006 55%
c v 16.58 26 317 0 15 4334 34 41266 11366 4.2 28 7 2 6 24% 12231 91631 17006 55%
c w 16.66 26 317 0 15 4334 34 41266 11366 4.2 28 7 2 6 24% 12231 91631 17006 55%
c x 16.76 26 317 0 15 4334 34 41266 11361 4.2 28 7 2 6 24% 12231 86108 17006 55%
c d 17.06 26 317 0 15 4334 34 41266 11360 4.2 28 7 2 6 24% 12225 86108 17003 55%
c t 17.08 26 317 0 15 4334 34 41266 11360 4.2 28 7 2 6 24% 12209 86108 17003 55%
c u 17.19 26 317 0 15 4334 34 41266 10930 4.2 28 7 2 6 24% 12216 86108 17003 55%
c v 17.25 26 317 0 15 4334 34 41266 10702 4.2 28 7 2 6 24% 12216 86108 17003 55%
c w 17.41 26 317 0 15 4334 34 41266 10691 4.2 28 7 2 6 24% 12216 86108 17003 55%
c
c  seconds   switched     rate         size/glue tier1    binary          remaining
c         MB   reductions   conflicts        size  tier2      irredundant
c           level   restarts      redundant    glue   trail          variables
c
c x 17.49 26 317 0 15 4334 34 41266 10690 4.2 28 7 2 6 24% 12219 85241 17003 55%
c d 17.50 26 317 0 15 4334 34 41266 10687 4.2 28 7 2 6 24% 12215 85241 17001 55%
c t 17.53 26 317 0 15 4334 34 41266 10687 4.2 28 7 2 6 24% 12214 85241 17001 55%
c - 17.64 26 317 0 16 4381 34 41473 9769 4.2 28 7 2 6 24% 12214 85241 17001 55%
c - 18.79 26 310 0 17 4792 33 45474 11962 4.1 28 7 2 6 24% 12288 85240 17001 55%
c - 19.92 26 303 0 18 5139 33 49597 12771 4.1 28 7 1 6 25% 12343 85236 17001 55%
c s 20.20 26 303 0 18 5213 32 52149 14851 4.0 27 7 1 6 24% 12428 82895 17001 55%
c e 20.33 26 303 0 18 5213 32 52149 14851 4.0 27 7 1 6 24% 11308 84810 16342 53%
c 2 20.33 26 303 0 18 5213 32 52149 14851 4.0 27 7 1 6 24% 11306 84810 16342 53%
c s 20.34 26 303 0 18 5213 32 52149 14851 4.0 27 7 1 6 24% 11315 84465 16342 53%
c e 20.36 26 303 0 18 5213 32 52149 14851 4.0 27 7 1 6 24% 11240 84582 16306 53%
c ^ 20.36 26 303 0 18 5213 32 52149 14851 4.0 27 7 1 6 24% 11240 84582 16306 53%
c - 20.76 26 301 0 19 5378 32 53840 12443 4.0 27 7 1 6 24% 11260 84582 16306 53%
c - 21.57 26 297 0 20 5685 31 58198 13515 4.0 27 7 1 5 24% 11334 84582 16306 53%
c c 21.75 26 295 0 20 5723 31 58893 14124 4.0 27 7 1 5 24% 11474 83874 16205 53%
c d 21.76 26 295 0 20 5723 31 58893 13860 4.0 27 7 1 5 24% 11272 83874 16205 53%
c u 21.82 26 295 0 20 5723 31 58893 12462 4.0 27 7 1 5 24% 11289 83874 16205 53%
c v 21.89 26 295 0 20 5723 31 58893 10521 4.0 27 7 1 5 24% 11303 83874 16205 53%
c w 21.95 26 295 0 20 5723 31 58893 10374 4.0 27 7 1 5 24% 11303 83874 16205 53%
c x 22.10 26 295 0 20 5723 31 58893 10365 4.0 27 7 1 5 24% 11325 82995 16205 53%
c
c  seconds   switched     rate         size/glue tier1    binary          remaining
c         MB   reductions   conflicts        size  tier2      irredundant
c           level   restarts      redundant    glue   trail          variables
c
c = 22.46 26 295 0 20 5723 31 58893 10365 4.0 27 7 1 5 24% 11727 82995 16004 52%
c d 22.47 26 295 0 20 5723 31 58893 10282 4.0 27 7 1 5 24% 11283 82995 15998 52%
c t 22.49 26 295 0 20 5723 31 58893 10282 4.0 27 7 1 5 24% 11234 82995 15998 52%
c f 22.55 26 295 0 20 5723 31 58893 10282 4.0 27 7 1 5 24% 11234 82964 16004 52%
c c 22.63 26 295 0 20 5723 31 58893 10276 4.0 27 7 1 5 24% 11246 82917 15998 52%
c d 22.63 26 295 0 20 5723 31 58893 10276 4.0 27 7 1 5 24% 11234 82917 15998 52%
c u 22.69 26 295 0 20 5723 31 58893 9977 4.0 27 7 1 5 24% 11235 82917 15998 52%
c v 22.74 26 295 0 20 5723 31 58893 9586 4.0 27 7 1 5 24% 11239 82917 15998 52%
c w 22.79 26 295 0 20 5723 31 58893 9533 4.0 27 7 1 5 24% 11239 82917 15998 52%
c x 22.97 26 295 0 20 5723 31 58893 9533 4.0 27 7 1 5 24% 11274 82361 15998 52%
c = 23.35 26 295 0 20 5723 31 58893 9533 4.0 27 7 1 5 24% 13416 82361 14927 49%
c d 23.36 26 295 0 20 5723 31 58893 9304 4.0 27 7 1 5 24% 11233 82361 14927 49%
c t 23.39 26 295 0 20 5723 31 58893 9304 4.0 27 7 1 5 24% 11075 82361 14927 49%
c f 23.44 26 295 0 20 5723 31 58893 9304 4.0 27 7 1 5 24% 11099 82154 14955 49%
c - 23.98 26 289 0 21 5910 30 62670 10715 3.9 26 7 1 5 23% 11162 82150 14955 49%
c - 24.89 26 283 0 22 6308 30 67252 12684 3.8 25 7 1 5 23% 11261 82148 14955 49%
c o 25.50 26 284 0 22 6558 29 70983 15735 3.7 25 7 1 5 23% 11375 82148 14955 49%
c - 25.96 26 282 0 23 6737 29 71942 14138 3.8 25 7 1 5 23% 11387 82148 14955 49%
c - 27.15 26 276 0 24 7218 29 76737 15518 3.7 26 7 1 5 23% 11486 82147 14955 49%
c d 28.22 26 269 0 24 7711 29 79947 18116 3.8 26 7 1 5 24% 11250 82147 14815 48%
c
c  seconds   switched     rate         size/glue tier1    binary          remaining
c         MB   reductions   conflicts        size  tier2      irredundant
c           level   restarts      redundant    glue   trail          variables
c
c u 28.31 26 269 0 24 7711 29 79947 15842 3.8 26 7 1 5 24% 11283 82147 14815 48%
c v 28.41 26 269 0 24 7711 29 79947 13603 3.8 26 7 1 5 24% 11306 82147 14815 48%
c w 28.60 26 269 0 24 7711 29 79947 13602 3.8 26 7 1 5 24% 11306 82147 14815 48%
c x 28.73 26 269 0 24 7711 29 79947 13600 3.8 26 7 1 5 24% 11308 74807 14815 48%
c = 29.00 26 269 0 24 7711 29 79947 13600 3.8 26 7 1 5 24% 11692 74807 14623 48%
c d 29.01 26 269 0 24 7711 29 79947 13323 3.8 26 7 1 5 24% 11222 74807 14619 48%
c t 29.03 26 269 0 24 7711 29 79947 13323 3.8 26 7 1 5 24% 11165 74807 14619 48%
c f 29.06 26 269 0 24 7711 29 79947 13323 3.8 26 7 1 5 24% 11167 74795 14621 48%
c c 29.13 26 269 0 24 7711 29 79947 13306 3.8 26 7 1 5 24% 11187 74737 14612 48%
c d 29.14 26 269 0 24 7711 29 79947 13306 3.8 26 7 1 5 24% 11169 74737 14612 48%
c u 29.21 26 269 0 24 7711 29 79947 12698 3.8 26 7 1 5 24% 11171 74737 14612 48%
c v 29.27 26 269 0 24 7711 29 79947 12200 3.8 26 7 1 5 24% 11173 74737 14612 48%
c w 29.51 26 269 0 24 7711 29 79947 12124 3.8 26 7 1 5 24% 11173 74737 14612 48%
c x 29.63 26 269 0 24 7711 29 79947 12121 3.8 26 7 1 5 24% 11173 73178 14612 48%
c = 30.12 26 269 0 24 7711 29 79947 12121 3.8 26 7 1 5 24% 11573 73118 14406 47%
c d 30.12 26 269 0 24 7711 29 79947 11978 3.8 26 7 1 5 24% 11139 73118 14404 47%
c t 30.15 26 269 0 24 7711 29 79947 11978 3.8 26 7 1 5 24% 11079 73118 14404 47%
c f 30.17 26 269 0 24 7711 29 79947 11978 3.8 26 7 1 5 24% 11083 73088 14409 47%
c - 30.71 26 267 0 25 7951 29 81635 11556 3.7 26 7 1 5 24% 11085 73088 14409 47%
c - 31.54 26 262 0 26 8272 28 86636 13665 3.7 26 7 1 5 24% 11161 73084 14409 47%
c
c  seconds   switched     rate         size/glue tier1    binary          remaining
c         MB   reductions   conflicts        size  tier2      irredundant
c           level   restarts      redundant    glue   trail          variables
c
c - 32.25 26 261 0 27 8547 27 91735 15406 3.7 25 7 1 5 24% 11215 73083 14409 47%
c s 33.19 26 255 0 27 8934 27 95802 18971 3.7 26 7 1 5 24% 11257 71665 14409 47%
c e 33.34 26 255 0 27 8934 27 95802 18971 3.7 26 7 1 5 24% 7682 80308 12590 41%
c 2 33.34 26 255 0 27 8934 27 95802 18971 3.7 26 7 1 5 24% 7672 80308 12590 41%
c s 33.37 26 255 0 27 8934 27 95802 18971 3.7 26 7 1 5 24% 7693 79753 12590 41%
c e 33.39 26 255 0 27 8934 27 95802 18971 3.7 26 7 1 5 24% 7620 79912 12556 41%
c ^ 33.39 26 255 0 27 8934 27 95802 18971 3.7 26 7 1 5 24% 7620 79912 12556 41%
c - 33.84 26 254 0 28 9135 27 96932 12865 3.6 26 7 1 5 24% 7630 79912 12556 41%
c - 35.51 26 245 0 29 9988 27 102224 15263 3.6 26 7 1 5 24% 7658 79911 12556 41%
c d 35.98 26 242 0 29 10171 27 104572 17263 3.6 26 7 1 5 24% 7641 79911 12539 41%
c u 36.05 26 242 0 29 10171 27 104572 15406 3.6 26 7 1 5 24% 7662 79911 12539 41%
c v 36.16 26 242 0 29 10171 27 104572 12952 3.6 26 7 1 5 24% 7674 79911 12539 41%
c w 36.38 26 242 0 29 10171 27 104572 12915 3.6 26 7 1 5 24% 7674 79911 12539 41%
c x 36.51 26 242 0 29 10171 27 104572 12915 3.6 26 7 1 5 24% 7677 79750 12539 41%
c = 37.07 26 242 0 29 10171 27 104572 12915 3.6 26 7 1 5 24% 8181 79745 12286 40%
c d 37.08 26 242 0 29 10171 27 104572 12448 3.6 26 7 1 5 24% 7607 79745 12286 40%
c t 37.10 26 242 0 29 10171 27 104572 12448 3.6 26 7 1 5 24% 7554 79745 12286 40%
c f 37.20 26 242 0 29 10171 27 104572 12448 3.6 26 7 1 5 24% 7570 79591 12300 40%
c u 37.28 26 242 0 29 10171 27 104572 11768 3.6 26 7 1 5 24% 7576 79591 12300 40%
c v 37.34 26 242 0 29 10171 27 104572 11228 3.6 26 7 1 5 24% 7576 79591 12300 40%
c
c  seconds   switched      rate          size/glue tier1    binary         remaining
c         MB   reductions    conflicts         size  tier2     irredundant
c           level   restarts        redundant    glue   trail         variables
c
c w 37.61 26 242 0 29 10171 27 104572 10914 3.6 26 7 1 5 24% 7576 79591 12300 40%
c = 38.18 26 242 0 29 10171 27 104572 10914 3.6 26 7 1 5 24% 7602 79590 12287 40%
c d 38.19 26 242 0 29 10171 27 104572 10873 3.6 26 7 1 5 24% 7574 79590 12287 40%
c t 38.21 26 242 0 29 10171 27 104572 10873 3.6 26 7 1 5 24% 7571 79590 12287 40%
c f 38.22 26 242 0 29 10171 27 104572 10873 3.6 26 7 1 5 24% 7573 79578 12288 40%
c - 38.79 26 235 0 30 10358 27 107611 11894 3.6 26 7 1 5 24% 7581 79577 12288 40%
c o 39.66 26 230 0 30 10651 26 110984 15071 3.5 26 7 1 5 24% 7593 79577 12288 40%
c - 40.48 26 228 0 31 10939 26 113088 14669 3.5 26 7 1 5 25% 7601 79577 12288 40%
c - 41.81 26 221 0 32 11388 26 118655 16825 3.5 26 8 1 5 25% 7642 79576 12288 40%
c - 43.16 26 214 0 33 11842 25 124311 18501 3.5 26 8 1 5 25% 7657 79576 12288 40%
c i 43.79 26 209 0 33 12033 24 128063 21818 3.5 26 8 1 5 24% 7696 79574 12286 40%
c - 44.22 26 207 0 34 12173 24 130055 19755 3.5 26 8 1 5 24% 7702 79574 12286 40%
c i 44.34 26 207 0 34 12209 24 130265 19955 3.5 26 8 1 5 24% 7702 79574 12283 40%
c i 44.45 26 207 0 34 12254 24 130636 20294 3.5 27 8 1 5 24% 7702 79574 12282 40%
c c 44.97 26 205 0 34 12424 24 132817 22260 3.4 26 8 1 4 24% 7721 79512 12279 40%
c d 44.97 26 205 0 34 12424 24 132817 22044 3.4 26 8 1 4 24% 7725 79502 12279 40%
c d 44.98 26 205 0 34 12424 24 132817 22044 3.4 26 8 1 4 24% 7715 79502 12274 40%
c u 45.09 26 205 0 34 12424 24 132817 19650 3.4 26 8 1 4 24% 7741 79502 12274 40%
c v 45.22 26 205 0 34 12424 24 132817 17102 3.4 26 8 1 4 24% 7744 79502 12274 40%
c w 45.43 26 205 0 34 12424 24 132817 17069 3.4 26 8 1 4 24% 7744 79502 12274 40%
c
c  seconds   switched      rate          size/glue tier1    binary         remaining
c         MB   reductions    conflicts         size  tier2     irredundant
c           level   restarts        redundant    glue   trail         variables
c
c x 45.55 26 205 0 34 12424 24 132817 17069 3.4 26 8 1 4 24% 7744 79481 12274 40%
c d 46.19 26 205 0 34 12424 24 132817 17068 3.4 26 8 1 4 24% 7742 79481 12273 40%
c t 46.21 26 205 0 34 12424 24 132817 17068 3.4 26 8 1 4 24% 7684 79481 12273 40%
c f 46.22 26 205 0 34 12424 24 132817 17068 3.4 26 8 1 4 24% 7688 79457 12275 40%
c u 46.32 26 205 0 34 12424 24 132817 16356 3.4 26 8 1 4 24% 7694 79457 12275 40%
c v 46.40 26 205 0 34 12424 24 132817 15781 3.4 26 8 1 4 24% 7695 79457 12275 40%
c w 46.80 26 205 0 34 12424 24 132817 15150 3.4 26 8 1 4 24% 7696 79457 12275 40%
c d 46.81 26 205 0 34 12424 24 132817 15149 3.4 26 8 1 4 24% 7694 79457 12274 40%
c t 46.82 26 205 0 34 12424 24 132817 15149 3.4 26 8 1 4 24% 7692 79457 12274 40%
c - 47.24 26 203 0 35 12552 24 135885 15288 3.4 26 8 1 5 24% 7725 79457 12274 40%
c - 48.97 26 200 0 36 13204 24 141801 17973 3.4 27 8 1 4 25% 7740 79457 12274 40%
c - 49.98 26 196 0 37 13595 23 147801 20215 3.4 26 8 1 4 25% 7768 79456 12274 40%
c i 50.50 26 193 0 37 13769 23 150130 22360 3.4 26 8 1 4 25% 7777 79455 12273 40%
c i 50.71 26 192 0 37 13836 23 150789 22979 3.4 26 8 1 4 25% 7781 79455 12272 40%
c i 51.48 26 191 0 37 14103 23 153772 25760 3.4 27 8 1 4 25% 7796 79455 12271 40%
c - 51.49 26 191 0 38 14103 23 153883 21782 3.4 27 8 1 4 25% 7787 79454 12271 40%
c i 51.77 26 190 0 38 14199 23 154853 22659 3.4 27 8 1 4 25% 7793 79454 12270 40%
c i 51.88 26 190 0 38 14218 23 155438 23201 3.4 27 8 1 4 25% 7798 79454 12269 40%
c i 52.11 26 189 0 38 14316 23 155997 23726 3.4 27 8 1 4 25% 7801 79454 12268 40%
c s 52.55 26 188 0 38 14464 23 157864 25477 3.4 27 8 1 4 25% 7810 77899 12268 40%
c
c  seconds   switched      rate          size/glue tier1    binary         remaining
c         MB   reductions    conflicts         size  tier2     irredundant
c           level   restarts        redundant    glue   trail         variables
c
c e 52.73 26 188 0 38 14464 23 157864 25477 3.4 27 8 1 4 25% 4750 91182 10582 35%
c 2 52.73 26 188 0 38 14464 23 157864 25477 3.4 27 8 1 4 25% 4748 91182 10582 35%
c s 52.77 26 188 0 38 14464 23 157864 25477 3.4 27 8 1 4 25% 4772 90192 10582 35%
c e 52.79 26 188 0 38 14464 23 157864 25477 3.4 27 8 1 4 25% 4746 90345 10559 34%
c ^ 52.79 26 188 0 38 14464 23 157864 25477 3.4 27 8 1 4 25% 4746 90345 10559 34%
c - 53.44 26 187 0 39 14689 23 160047 17614 3.4 27 8 1 4 25% 4748 90344 10559 34%
c o 53.55 26 186 0 39 14718 23 160993 18456 3.3 27 8 1 4 25% 4750 90343 10559 34%
c u 54.90 26 184 0 39 15180 23 164789 19665 3.3 27 8 1 4 26% 4779 90343 10559 34%
c v 55.02 26 184 0 39 15180 23 164789 17319 3.3 27 8 1 4 26% 4784 90343 10559 34%
c w 55.52 26 184 0 39 15180 23 164789 17225 3.3 27 8 1 4 26% 4784 90343 10559 34%
c = 56.26 26 184 0 39 15180 23 164789 17225 3.3 27 8 1 4 26% 4788 90339 10557 34%
c d 56.27 26 184 0 39 15180 23 164789 17225 3.3 27 8 1 4 26% 4784 90339 10557 34%
c t 56.28 26 184 0 39 15180 23 164789 17225 3.3 27 8 1 4 26% 4729 90339 10557 34%
c f 56.44 26 184 0 39 15180 23 164789 17225 3.3 27 8 1 4 26% 4813 89313 10603 35%
c u 56.54 26 184 0 39 15180 23 164789 16505 3.3 27 8 1 4 26% 4821 89313 10603 35%
c v 56.61 26 184 0 39 15180 23 164789 16026 3.3 27 8 1 4 26% 4821 89313 10603 35%
c w 56.89 26 184 0 39 15180 23 164789 15433 3.3 27 8 1 4 26% 4821 89313 10603 35%
c x 57.08 26 184 0 39 15180 23 164789 15417 3.3 27 8 1 4 26% 4851 87858 10603 35%
c = 57.80 26 184 0 39 15180 23 164789 15417 3.3 27 8 1 4 26% 4855 87848 10601 35%
c d 57.81 26 184 0 39 15180 23 164789 15417 3.3 27 8 1 4 26% 4851 87848 10601 35%
c
c  seconds   switched      rate          size/glue tier1    binary         remaining
c         MB   reductions    conflicts         size  tier2     irredundant
c           level   restarts        redundant    glue   trail         variables
c
c t 57.83 26 184 0 39 15180 23 164789 15417 3.3 27 8 1 4 26% 4831 87848 10601 35%
c - 58.09 26 183 0 40 15249 22 166291 14400 3.3 27 8 1 4 26% 4833 87848 10601 35%
c - 59.49 26 180 0 41 15760 22 172616 17293 3.3 27 8 1 4 26% 4838 87846 10601 35%
c i 59.60 26 179 0 41 15799 22 173091 17731 3.3 27 8 1 4 26% 4842 87846 10600 35%
c - 61.15 26 177 0 42 16375 22 179019 19596 3.2 27 8 1 4 26% 4854 87846 10600 35%
c i 61.19 26 177 0 42 16380 22 179390 19948 3.2 27 8 1 4 26% 4855 87846 10599 35%
c i 61.40 26 176 0 42 16459 22 181231 21593 3.2 27 8 1 4 26% 4878 87844 10598 35%
c i 61.42 26 176 0 42 16469 22 181598 21891 3.2 27 8 1 4 26% 4885 87844 10595 35%
c i 61.42 26 176 0 42 16469 22 181650 21908 3.2 27 8 1 4 26% 4893 87844 10594 35%
c i 61.42 26 176 0 42 16469 22 181658 21915 3.2 27 8 1 4 26% 4893 87844 10593 35%
c i 61.43 26 176 0 42 16469 21 181906 22080 3.2 27 8 1 4 26% 4903 87844 10592 35%
c i 61.43 26 176 0 42 16469 21 181940 22101 3.2 27 8 1 4 26% 4907 87844 10591 35%
c i 61.43 26 176 0 42 16469 21 182180 22297 3.2 27 8 1 4 26% 4909 87844 10587 35%
c i 61.43 26 176 0 42 16469 21 182187 22302 3.2 27 8 1 4 26% 4909 87844 10586 35%
c - 61.96 26 173 0 43 16683 21 185499 20310 3.2 26 8 1 4 26% 4883 87843 10586 35%
c i 61.99 26 173 0 43 16690 21 185803 20572 3.2 26 8 1 4 26% 4886 87843 10585 35%
c i 62.08 26 173 0 43 16732 21 186359 21087 3.2 26 8 1 4 26% 4886 87843 10584 35%
c i 62.29 26 166 0 43 16795 20 190949 25134 3.1 26 8 1 4 26% 4924 87841 10583 35%
c i 62.35 26 166 0 43 16816 20 191394 25542 3.1 26 8 1 4 26% 4926 87841 10582 35%
c - 62.47 26 165 0 44 16882 20 192057 20915 3.1 26 8 1 4 25% 4911 87841 10582 35%
c
c  seconds   switched      rate          size/glue tier1    binary         remaining
c         MB   reductions    conflicts         size  tier2     irredundant
c           level   restarts        redundant    glue   trail         variables
c
c i 62.54 26 165 0 44 16915 20 192683 21489 3.1 26 8 1 4 25% 4916 87840 10581 34%
c i 62.58 26 165 0 44 16946 20 192877 21671 3.1 26 8 1 4 25% 4917 87840 10580 34%
c i 62.65 26 164 0 44 16992 20 193388 22133 3.1 26 8 1 4 25% 4924 87840 10579 34%
c i 62.94 26 160 0 44 17131 19 196998 25411 3.1 25 8 1 4 25% 4931 87839 10578 34%
c - 63.08 26 158 0 45 17190 19 198691 21807 3.1 25 8 1 4 25% 4919 87838 10578 34%
c c 63.25 26 156 0 45 17274 19 200575 23519 3.1 25 8 1 4 24% 4932 87596 10576 34%
c d 63.26 26 156 0 45 17274 19 200575 23515 3.1 25 8 1 4 24% 4954 87572 10576 34%
c d 63.26 26 156 0 45 17274 19 200575 23509 3.1 25 8 1 4 24% 4930 87572 10564 34%
c u 63.39 27 156 0 45 17274 19 200575 20787 3.1 25 8 1 4 24% 4974 87572 10558 34%
c v 63.50 27 156 0 45 17274 19 200575 17897 3.1 25 8 1 4 24% 4982 87572 10558 34%
c w 63.63 27 156 0 45 17274 19 200575 16917 3.1 25 8 1 4 24% 4984 87572 10557 34%
c = 64.19 27 156 0 45 17274 19 200575 16917 3.1 25 8 1 4 24% 5028 87484 10535 34%
c d 64.20 27 156 0 45 17274 19 200575 16834 3.1 25 8 1 4 24% 4982 87484 10535 34%
c t 64.21 27 156 0 45 17274 19 200575 16834 3.1 25 8 1 4 24% 4909 87484 10535 34%
c u 64.34 27 156 0 45 17274 19 200575 16159 3.1 25 8 1 4 24% 4940 87484 10533 34%
c v 64.41 27 156 0 45 17274 19 200575 15620 3.1 25 8 1 4 24% 4948 87484 10533 34%
c w 64.52 27 156 0 45 17274 19 200575 15386 3.1 25 8 1 4 24% 4948 87484 10533 34%
c x 64.63 27 156 0 45 17274 19 200575 15386 3.1 25 8 1 4 24% 4952 87460 10533 34%
c d 65.17 27 156 0 45 17274 19 200575 15381 3.1 25 8 1 4 24% 4947 87460 10531 34%
c t 65.18 27 156 0 45 17274 19 200575 15381 3.1 25 8 1 4 24% 4929 87460 10531 34%
c
c  seconds   switched      rate          size/glue tier1    binary         remaining
c         MB   reductions    conflicts         size  tier2     irredundant
c           level   restarts        redundant    glue   trail         variables
c
c i 65.20 27 156 0 45 17274 19 200575 15381 3.1 25 8 1 4 24% 4929 87460 10531 34%
c i 65.26 27 155 0 45 17330 19 201435 16184 3.1 25 8 1 4 24% 4937 87460 10530 34%
c i 65.28 27 154 0 45 17352 19 202303 16924 3.1 25 8 1 4 24% 4962 87460 10527 34%
c i 65.29 27 154 0 45 17354 19 202345 16952 3.1 25 8 1 4 24% 4964 87460 10525 34%
c i 65.30 27 154 0 45 17354 19 202492 17053 3.1 25 8 1 4 24% 4981 87459 10521 34%
c i 65.30 27 154 0 45 17354 19 202493 17053 3.1 25 8 1 4 24% 4981 87459 10518 34%
c i 65.30 27 154 0 45 17354 19 202498 17053 3.1 25 8 1 4 24% 4982 87459 10514 34%
c i 65.30 27 154 0 45 17354 19 202499 17053 3.1 25 8 1 4 24% 4982 87459 10510 34%
c } 65.30 27 154 0 45 17354 19 202508 17057 3.1 25 8 1 4 24% 4983 87459 10439 34%
c 0 65.30 27 154 0 45 17354 19 202508 17057 3.1 25 8 1 4 24% 4983 87459 10439 34%
c
c ---- [ result ] ------------------------------------------------------------
c
s UNSATISFIABLE
c
c ---- [ profiling ] ---------------------------------------------------------
c
c          45.28   69.35 %  search
c          45.28   69.35 %  focused
c          19.50   29.87 %  simplify
c          18.71   28.65 %  probe
c           7.79   11.93 %  vivify
c           7.78   11.92 %  sweep
c           1.17    1.80 %  factor
c           1.10    1.69 %  eliminate
c           0.86    1.32 %  substitute
c           0.76    1.16 %  congruence
c           0.46    0.70 %  preprocess
c           0.33    0.51 %  reduce
c           0.22    0.33 %  transitive
c           0.20    0.31 %  subsume
c           0.15    0.22 %  fastel
c           0.12    0.18 %  backbone
c           0.03    0.05 %  lucky
c           0.02    0.04 %  parse
c =============================================
c          65.30  100.00 %  total
c
c ---- [ statistics ] --------------------------------------------------------
c
c chronological:                         7903                4 %  conflicts
c conflicts:                           202508             3101.34 per second
c congruent:                             2733                9 %  variables
c decisions:                          4343603               21.45 per conflict
c eliminated:                           16888               55 %  variables
c factored:                              6269               20 %  variables
c fast_eliminated:                       9292               55 %  eliminated
c fast_strengthened:                      178                6 %  per strengthened
c fast_subsumed:                           74                1 %  per subsumed
c iterations:                              36                0 %  variables
c propagations:                     170414787          2609844    per second
c reductions:                              45             4500    interval
c reordered:                                6            33751    interval
c restarts:                             17354               12    interval
c strengthened:                          2755                0 %  checks
c substituted:                           9468               31 %  variables
c subsumed:                             13225                0 %  checks
c switched:                                 0                0    interval
c vivified:                             94300               13 %  checks
c
c ---- [ glue usage ] --------------------------------------------------------
c
c focused glue 1 used 435866 clauses 65.94% accumulated 65.94% tier1
c focused glue 2 used 102307 clauses 15.48% accumulated 81.42%
c focused glue 3 used  35235 clauses  5.33% accumulated 86.75%
c focused glue 4 used  21640 clauses  3.27% accumulated 90.03% tier2
c
c ---- [ resources ] ---------------------------------------------------------
c
c maximum-resident-set-size:         27799552 bytes         27 MB
c process-time:                          1m 5s              65.30 seconds
c
c ---- [ shutting down ] -----------------------------------------------------
c
c exit 20
